
Gurobi 11.0.3 (linux64) logging started Sat Nov 23 11:36:26 2024

Set parameter LogFile to value "/home/yihong/Coding/OR_SUC/SUC_results_bigM100000_thread4/case24_ieee_rts_theta0.1_epsilon0.05_gurobi_seed840000_num_gen100_N_WDR50_load_scaling_factor1_exact_T24quadra_cost.txt"
Set parameter TimeLimit to value 3600
Gurobi Optimizer version 11.0.3 build v11.0.3rc0 (linux64 - "Ubuntu 20.04.6 LTS")

CPU model: AMD EPYC 7532 32-Core Processor, instruction set [SSE2|AVX|AVX2]
Thread count: 64 physical cores, 128 logical processors, using up to 4 threads

Optimize a model with 51943 rows, 29861 columns and 712638 nonzeros
Model fingerprint: 0xd2fb7eb8
Model has 2400 quadratic constraints
Variable types: 27411 continuous, 2450 integer (2450 binary)
Coefficient statistics:
  Matrix range     [3e-04, 1e+05]
  QMatrix range    [2e-03, 8e-03]
  QLMatrix range   [8e-01, 6e+01]
  Objective range  [1e+00, 1e+00]
  Bounds range     [1e+00, 1e+00]
  RHS range        [1e+00, 1e+05]
Presolve removed 42102 rows and 12927 columns
Presolve time: 0.26s
Presolved: 9841 rows, 16934 columns, 59983 nonzeros
Presolved model has 2400 quadratic constraint(s)
Variable types: 14494 continuous, 2440 integer (2440 binary)

Root relaxation: objective 2.984868e+04, 7457 iterations, 0.19 seconds (0.27 work units)

    Nodes    |    Current Node    |     Objective Bounds      |     Work
 Expl Unexpl |  Obj  Depth IntInf | Incumbent    BestBd   Gap | It/Node Time

     0     0 29848.6798    0    4          - 29848.6798      -     -    0s
     0     0 328481.967    0  654          - 328481.967      -     -    0s
     0     0 368630.389    0  649          - 368630.389      -     -    1s
     0     0 606367.744    0  636          - 606367.744      -     -    1s
     0     0 606528.821    0  491          - 606528.821      -     -    1s
     0     0 607008.810    0  408          - 607008.810      -     -    1s
     0     0 607011.716    0  408          - 607011.716      -     -    1s
     0     0 607161.691    0  429          - 607161.691      -     -    1s
     0     0 607165.166    0  429          - 607165.166      -     -    1s
     0     2 607165.166    0  429          - 607165.166      -     -    2s
H  607   276                    607619.94928 607347.565  0.04%  22.8    4s
*  607   276             185    607619.94928 607347.565  0.04%  22.8    4s

Cutting planes:
  Gomory: 5
  Implied bound: 318
  MIR: 108
  Flow cover: 90
  RLT: 1

Explored 667 nodes (34893 simplex iterations) in 4.96 seconds (6.01 work units)
Thread count was 4 (of 128 available processors)

Solution count 2: 607620 607620 

Optimal solution found (tolerance 1.00e-03)
Warning: max constraint violation (5.2082e-07) exceeds tolerance
Best objective 6.076199492777e+05, best bound 6.073475651918e+05, gap 0.0448%
